N = 6;
Capacity = 16;
Demand = [9, 9, 9, 2, 4, 10];
Distance = [|
  0, 39, 38, 29, 40, 15, 30
| 39, 0, 47, 20, 35, 41, 9
| 38, 47, 0, 27, 70, 52, 43
| 29, 20, 27, 0, 46, 38, 16
| 40, 35, 70, 46, 0, 28, 32
| 15, 41, 52, 38, 28, 0, 32
| 30, 9, 43, 16, 32, 32, 0
|];
